N = 20;
W = 100;
H = 100;
ItemWidth = [ 32, 20, 55, 73, 64, 59, 70, 36, 42, 97, 10, 57, 53, 25, 35, 87, 73, 45, 89, 39 ];
ItemHeight = [ 97, 97, 90, 89, 85, 78, 75, 61, 48, 43, 39, 37, 36, 36, 30, 29, 25, 13, 13, 4 ];
